Solving original (integer) problem with strategy gdp.hull_exact...
--- Job model.gms Start 02/15/26 02:56:31 52.2.0 d8e408be LEX-LEG x86 64bit/Linux
--- Applying:
    /package/gams/52.2/gmsprmun.txt
--- GAMS Parameters defined
    Input /local/scratch/a/sgusev/repos/k_means/data/gams_gurobi_gdp.hull_exact/no_mode/2026-02-15_02-56-30/original/model.gms
    Output /local/scratch/a/sgusev/repos/k_means/data/gams_gurobi_gdp.hull_exact/no_mode/2026-02-15_02-56-30/original/output.lst
    ScrDir /local/scratch/a/sgusev/repos/k_means/data/gams_gurobi_gdp.hull_exact/no_mode/2026-02-15_02-56-30/original/225a/
    SysDir /package/gams/52.2/
    CurDir /local/scratch/a/sgusev/repos/k_means/data/gams_gurobi_gdp.hull_exact/no_mode/2026-02-15_02-56-30/original/
    LogOption 3
    AppendLog 1
Licensee: David Bernal / SECQUOIA Research Group         G251008+0003Ac-GEN
          Purdue University, Davidson School of Chemical EngineeringDCE4838
          225a/gamslice.dat
          5a82958a-fbca-4a23
          node:66820903 mem:995 cores:48 ipport:37031 v:2                  
          Evaluation license: Not for commercial or production use
          The time-limited license stops working on : Jun 30, 2027
System information: 48 physical cores and 995 Gb physical memory detected
GAMS 52.2.0   Copyright (C) 1987-2025 GAMS Development. All rights reserved
--- Starting compilation
--- model.gms(3915) 2 Mb
--- $echo File /local/scratch/a/sgusev/repos/k_means/data/gams_gurobi_gdp.hull_exact/no_mode/2026-02-15_02-56-30/original/gurobi.opt
--- model.gms(5749) 2 Mb
--- Starting execution: elapsed 0:00:00.021
--- model.gms(3924) 3 Mb
--- Generating MINLP model GAMS_MODEL
--- model.gms(3928) 6 Mb
---   1,194 rows  574 columns  2,897 non-zeroes
---   1,904 nl-code  340 nl-non-zeroes
---   68 discrete-columns
--- Range statistics (absolute non-zero finite values)
--- RHS       [min, max] : [ 1.000E+00, 1.000E+00] - Zero values observed as well
--- Bound     [min, max] : [ 1.000E+00, 1.020E+02] - Zero values observed as well
--- Matrix    [min, max] : [ 1.000E+00, 1.020E+02] - Zero values observed as well
--- model.gms(3928) 4 Mb
--- Executing GUROBI (Solvelink=5): elapsed 0:00:00.027
Reading parameter(s) from "/local/scratch/a/sgusev/repos/k_means/data/gams_gurobi_gdp.hull_exact/no_mode/2026-02-15_02-56-30/original/gurobi.opt"
>>  NonConvex 2
>>  Threads 1
>>  MIPGap 1e-06
>>  MIPGapAbs 1e-10
>>  FeasibilityTol 1e-06
>>  OptimalityTol 1e-06
>>  IntFeasTol 1e-05
Finished reading from "/local/scratch/a/sgusev/repos/k_means/data/gams_gurobi_gdp.hull_exact/no_mode/2026-02-15_02-56-30/original/gurobi.opt"

... GRB_LICENSE_FILE = /local/scratch/a/sgusev/gurobi.lic

    Gurobi           52.2.0 d8e408be Dec 8, 2025           LEG x86 64bit/Linux    

... GAMS/Gurobi Link license.
... GMO Q Extraction (ThreePass): 0.00s

    Gurobi Optimizer version 13.0.0 build v13.0.0rc1 (linux64 - "Oracle Linux Server 9.7")
    
    CPU model: AMD EPYC 7643 48-Core Processor, instruction set [SSE2|AVX|AVX2]
    Thread count: 48 physical cores, 96 logical processors, using up to 1 threads
    
    Non-default parameters:
    TimeLimit  300
    MIPGap  1e-06
    LogToConsole  0
    NonConvex  2
    Threads  1
    
    Optimize a model with 1125 rows, 573 columns and 2539 nonzeros (Min)
    Model fingerprint: 0xc09e3da2
    Model has 17 linear objective coefficients
    Model has 68 quadratic constraints
    Variable types: 505 continuous, 68 integer (0 binary)
    Coefficient statistics:
      Matrix range     [1e+00, 1e+02]
      QMatrix range    [2e-02, 2e+00]
      Objective range  [1e+00, 1e+00]
      Bounds range     [1e+00, 1e+02]
      RHS range        [1e+00, 1e+00]
    Presolve removed 204 rows and 221 columns
    Presolve time: 0.01s
    Presolved: 1449 rows, 828 columns, 3866 nonzeros
    Presolved model has 204 quadratic constraint(s)
    Variable types: 760 continuous, 68 integer (68 binary)
    
    Root relaxation: objective 0.000000e+00, 371 iterations, 0.00 seconds (0.00 work units)
    
        Nodes    |    Current Node    |     Objective Bounds      |     Work
     Expl Unexpl |  Obj  Depth IntInf | Incumbent    BestBd   Gap | It/Node Time
    
         0     0    0.00000    0    4          -    0.00000      -     -    0s
    H    0     0                      12.7256082    0.00000   100%     -    0s
         0     0    0.00000    0   10   12.72561    0.00000   100%     -    0s
         0     0    0.00000    0   19   12.72561    0.00000   100%     -    0s
    H    0     0                      11.3379775    0.00000   100%     -    0s
         0     0    0.00000    0   30   11.33798    0.00000   100%     -    0s
         0     0    0.00000    0   35   11.33798    0.00000   100%     -    0s
         0     0    0.00000    0    3   11.33798    0.00000   100%     -    0s
         0     0    0.00000    0   28   11.33798    0.00000   100%     -    0s
         0     0    0.00000    0   14   11.33798    0.00000   100%     -    0s
         0     0    0.00000    0   22   11.33798    0.00000   100%     -    0s
         0     0    0.00000    0   22   11.33798    0.00000   100%     -    0s
         0     0    0.00000    0   32   11.33798    0.00000   100%     -    0s
         0     0    0.00000    0   16   11.33798    0.00000   100%     -    0s
         0     0    0.00000    0   26   11.33798    0.00000   100%     -    0s
         0     0    0.00000    0   26   11.33798    0.00000   100%     -    0s
         0     0    0.00000    0   30   11.33798    0.00000   100%     -    0s
         0     0    0.00000    0   22   11.33798    0.00000   100%     -    0s
         0     0    0.00000    0   30   11.33798    0.00000   100%     -    0s
         0     0    0.00000    0   24   11.33798    0.00000   100%     -    0s
         0     0    0.00000    0   26   11.33798    0.00000   100%     -    0s
         0     0    0.00000    0   22   11.33798    0.00000   100%     -    0s
         0     0    0.00000    0   26   11.33798    0.00000   100%     -    0s
         0     0    0.00000    0   26   11.33798    0.00000   100%     -    0s
         0     0    0.00000    0   26   11.33798    0.00000   100%     -    0s
         0     0    0.00000    0   20   11.33798    0.00000   100%     -    0s
         0     0    0.00000    0   26   11.33798    0.00000   100%     -    0s
         0     0    0.00000    0   26   11.33798    0.00000   100%     -    0s
         0     0    0.00000    0   27   11.33798    0.00000   100%     -    0s
         0     0    0.00000    0   20   11.33798    0.00000   100%     -    0s
         0     0    0.00000    0   30   11.33798    0.00000   100%     -    0s
         0     0    0.00000    0   28   11.33798    0.00000   100%     -    0s
         0     0    0.00000    0   28   11.33798    0.00000   100%     -    0s
         0     0    0.00000    0   21   11.33798    0.00000   100%     -    0s
         0     0    0.00000    0   29   11.33798    0.00000   100%     -    0s
         0     0    0.00000    0   28   11.33798    0.00000   100%     -    0s
         0     0    0.00000    0   27   11.33798    0.00000   100%     -    0s
         0     0    0.00000    0   27   11.33798    0.00000   100%     -    0s
         0     0    0.00000    0   30   11.33798    0.00000   100%     -    0s
         0     0    0.00000    0   16   11.33798    0.00000   100%     -    0s
         0     0    0.00000    0   22   11.33798    0.00000   100%     -    0s
         0     0    0.00000    0   22   11.33798    0.00000   100%     -    0s
         0     0    0.00000    0   26   11.33798    0.00000   100%     -    0s
         0     0    0.00000    0   19   11.33798    0.00000   100%     -    0s
         0     0    0.00000    0   24   11.33798    0.00000   100%     -    0s
         0     0    0.00000    0   20   11.33798    0.00000   100%     -    0s
         0     0    0.00000    0   26   11.33798    0.00000   100%     -    0s
         0     0    0.00000    0   23   11.33798    0.00000   100%     -    0s
         0     0    0.00000    0   33   11.33798    0.00000   100%     -    0s
         0     0    0.00000    0   23   11.33798    0.00000   100%     -    0s
         0     0    0.00000    0   25   11.33798    0.00000   100%     -    0s
         0     0    0.00000    0   15   11.33798    0.00000   100%     -    0s
         0     0    0.00000    0   24   11.33798    0.00000   100%     -    0s
         0     0    0.00000    0   23   11.33798    0.00000   100%     -    0s
         0     0    0.00000    0   31   11.33798    0.00000   100%     -    0s
         0     0    0.00000    0   18   11.33798    0.00000   100%     -    0s
         0     0    0.00000    0   31   11.33798    0.00000   100%     -    0s
         0     0    0.00000    0   22   11.33798    0.00000   100%     -    0s
         0     0    0.00000    0   26   11.33798    0.00000   100%     -    0s
         0     0    0.00000    0   20   11.33798    0.00000   100%     -    0s
         0     0    0.00000    0   24   11.33798    0.00000   100%     -    0s
         0     0    0.00000    0   24   11.33798    0.00000   100%     -    0s
         0     0    0.00000    0   26   11.33798    0.00000   100%     -    0s
         0     0    0.00000    0   26   11.33798    0.00000   100%     -    0s
         0     0    0.00000    0   26   11.33798    0.00000   100%     -    0s
         0     0    0.00000    0   20   11.33798    0.00000   100%     -    0s
         0     0    0.00000    0   20   11.33798    0.00000   100%     -    0s
         0     0    0.00000    0   20   11.33798    0.00000   100%     -    0s
         0     0    0.00000    0   25   11.33798    0.00000   100%     -    0s
         0     0    0.00000    0   20   11.33798    0.00000   100%     -    0s
         0     0    0.00000    0   24   11.33798    0.00000   100%     -    0s
         0     0    0.00000    0   24   11.33798    0.00000   100%     -    0s
         0     0    0.00000    0   27   11.33798    0.00000   100%     -    0s
         0     0    0.00000    0   25   11.33798    0.00000   100%     -    0s
         0     0    0.00000    0   30   11.33798    0.00000   100%     -    0s
         0     0    0.00000    0   24   11.33798    0.00000   100%     -    0s
         0     0    0.00000    0   26   11.33798    0.00000   100%     -    0s
         0     0    0.00000    0   17   11.33798    0.00000   100%     -    0s
         0     0    0.00000    0   32   11.33798    0.00000   100%     -    0s
         0     0    0.00000    0   26   11.33798    0.00000   100%     -    1s
         0     0    0.00000    0   28   11.33798    0.00000   100%     -    1s
         0     0    0.00000    0   20   11.33798    0.00000   100%     -    1s
         0     0    0.00000    0   20   11.33798    0.00000   100%     -    1s
         0     0    0.00000    0   20   11.33798    0.00000   100%     -    1s
         0     0    0.00000    0   28   11.33798    0.00000   100%     -    1s
         0     0    0.00000    0   27   11.33798    0.00000   100%     -    1s
         0     0    0.00000    0   24   11.33798    0.00000   100%     -    1s
         0     0    0.00000    0   22   11.33798    0.00000   100%     -    1s
         0     0    0.00000    0   24   11.33798    0.00000   100%     -    1s
         0     0    0.00000    0   24   11.33798    0.00000   100%     -    1s
         0     0    0.00000    0   24   11.33798    0.00000   100%     -    1s
         0     0    0.00000    0   18   11.33798    0.00000   100%     -    1s
         0     0    0.00000    0   24   11.33798    0.00000   100%     -    1s
         0     0    0.00000    0   21   11.33798    0.00000   100%     -    1s
         0     0    0.00000    0   30   11.33798    0.00000   100%     -    1s
         0     0    0.00000    0   30   11.33798    0.00000   100%     -    1s
         0     0    0.00000    0   28   11.33798    0.00000   100%     -    1s
         0     0    0.00000    0   28   11.33798    0.00000   100%     -    1s
         0     0    0.00000    0   25   11.33798    0.00000   100%     -    1s
         0     0    0.00000    0   21   11.33798    0.00000   100%     -    1s
         0     0    0.00000    0   26   11.33798    0.00000   100%     -    1s
         0     0    0.00000    0   20   11.33798    0.00000   100%     -    1s
         0     0    0.00000    0   23   11.33798    0.00000   100%     -    1s
         0     0    0.00000    0   23   11.33798    0.00000   100%     -    1s
         0     0    0.00000    0   26   11.33798    0.00000   100%     -    1s
         0     0    0.00000    0   24   11.33798    0.00000   100%     -    1s
         0     0    0.00000    0   21   11.33798    0.00000   100%     -    1s
         0     0    0.00000    0   21   11.33798    0.00000   100%     -    1s
         0     0    0.00000    0   26   11.33798    0.00000   100%     -    1s
         0     0    0.00000    0   26   11.33798    0.00000   100%     -    1s
         0     0    0.00000    0   26   11.33798    0.00000   100%     -    1s
         0     0    0.00000    0   26   11.33798    0.00000   100%     -    1s
         0     0    0.00000    0   26   11.33798    0.00000   100%     -    1s
         0     0    0.00000    0   24   11.33798    0.00000   100%     -    1s
         0     0    0.00000    0   27   11.33798    0.00000   100%     -    1s
         0     0    0.00000    0   14   11.33798    0.00000   100%     -    1s
         0     0    0.00000    0   26   11.33798    0.00000   100%     -    1s
         0     0    0.00000    0   26   11.33798    0.00000   100%     -    1s
         0     0    0.00000    0   22   11.33798    0.00000   100%     -    1s
         0     0    0.00000    0   20   11.33798    0.00000   100%     -    1s
         0     0    0.00000    0   29   11.33798    0.00000   100%     -    1s
         0     0    0.00000    0   20   11.33798    0.00000   100%     -    1s
         0     0    0.00000    0   22   11.33798    0.00000   100%     -    1s
         0     0    0.00000    0   22   11.33798    0.00000   100%     -    1s
         0     0    0.00000    0   27   11.33798    0.00000   100%     -    1s
         0     0    0.00000    0   23   11.33798    0.00000   100%     -    1s
         0     0    0.00000    0   25   11.33798    0.00000   100%     -    1s
         0     0    0.00000    0   25   11.33798    0.00000   100%     -    1s
         0     0    0.00000    0   25   11.33798    0.00000   100%     -    1s
         0     0    0.00000    0   24   11.33798    0.00000   100%     -    1s
         0     0    0.00000    0   28   11.33798    0.00000   100%     -    1s
         0     0    0.00000    0   27   11.33798    0.00000   100%     -    1s
         0     0    0.00000    0   32   11.33798    0.00000   100%     -    1s
         0     0    0.00000    0   21   11.33798    0.00000   100%     -    1s
         0     0    0.00000    0   33   11.33798    0.00000   100%     -    1s
         0     0    0.00000    0   24   11.33798    0.00000   100%     -    1s
         0     0    0.00000    0   28   11.33798    0.00000   100%     -    1s
         0     0    0.00000    0   18   11.33798    0.00000   100%     -    1s
         0     0    0.00000    0   21   11.33798    0.00000   100%     -    1s
         0     0    0.00000    0   21   11.33798    0.00000   100%     -    1s
         0     0    0.00000    0   29   11.33798    0.00000   100%     -    1s
         0     0    0.00000    0   20   11.33798    0.00000   100%     -    1s
         0     0    0.00000    0   28   11.33798    0.00000   100%     -    1s
         0     0    0.00000    0   21   11.33798    0.00000   100%     -    1s
         0     0    0.00000    0   22   11.33798    0.00000   100%     -    1s
         0     0    0.00000    0   19   11.33798    0.00000   100%     -    1s
         0     0    0.00000    0   24   11.33798    0.00000   100%     -    1s
         0     0    0.00000    0   22   11.33798    0.00000   100%     -    1s
         0     0    0.00000    0   22   11.33798    0.00000   100%     -    1s
         0     0    0.00000    0   22   11.33798    0.00000   100%     -    1s
         0     0    0.00000    0   30   11.33798    0.00000   100%     -    1s
         0     0    0.00000    0   28   11.33798    0.00000   100%     -    1s
         0     0    0.00000    0   28   11.33798    0.00000   100%     -    1s
         0     0    0.00000    0   22   11.33798    0.00000   100%     -    1s
         0     0    0.00000    0   30   11.33798    0.00000   100%     -    1s
         0     0    0.00000    0   17   11.33798    0.00000   100%     -    1s
         0     0    0.00000    0   24   11.33798    0.00000   100%     -    1s
         0     0    0.00000    0   13   11.33798    0.00000   100%     -    1s
         0     0    0.00000    0   30   11.33798    0.00000   100%     -    1s
         0     0    0.00000    0   23   11.33798    0.00000   100%     -    1s
         0     0    0.00000    0   30   11.33798    0.00000   100%     -    1s
         0     0    0.00000    0   22   11.33798    0.00000   100%     -    2s
         0     0    0.00000    0   28   11.33798    0.00000   100%     -    2s
         0     0    0.00000    0   25   11.33798    0.00000   100%     -    2s
         0     0    0.00000    0   26   11.33798    0.00000   100%     -    2s
         0     0    0.00000    0   24   11.33798    0.00000   100%     -    2s
         0     0    0.00000    0   29   11.33798    0.00000   100%     -    2s
         0     0    0.00000    0   26   11.33798    0.00000   100%     -    2s
         0     0    0.00000    0   25   11.33798    0.00000   100%     -    2s
         0     0    0.00000    0   20   11.33798    0.00000   100%     -    2s
         0     0    0.00000    0   28   11.33798    0.00000   100%     -    2s
         0     0    0.00000    0   28   11.33798    0.00000   100%     -    2s
         0     0    0.00000    0   24   11.33798    0.00000   100%     -    2s
         0     0    0.00000    0   24   11.33798    0.00000   100%     -    2s
         0     0    0.00000    0   24   11.33798    0.00000   100%     -    2s
         0     0    0.00000    0   21   11.33798    0.00000   100%     -    2s
         0     0    0.00000    0   36   11.33798    0.00000   100%     -    2s
         0     0    0.00000    0   12   11.33798    0.00000   100%     -    2s
         0     0    0.00000    0   28   11.33798    0.00000   100%     -    2s
         0     0    0.00000    0   28   11.33798    0.00000   100%     -    2s
         0     0    0.00000    0   28   11.33798    0.00000   100%     -    2s
         0     0    0.00000    0   25   11.33798    0.00000   100%     -    2s
         0     0    0.00000    0   32   11.33798    0.00000   100%     -    2s
         0     0    0.00000    0   28   11.33798    0.00000   100%     -    2s
         0     0    0.00000    0   26   11.33798    0.00000   100%     -    2s
         0     0    0.00000    0   20   11.33798    0.00000   100%     -    2s
         0     0    0.00000    0   23   11.33798    0.00000   100%     -    2s
         0     0    0.00000    0   16   11.33798    0.00000   100%     -    2s
         0     0    0.00000    0   23   11.33798    0.00000   100%     -    2s
         0     0    0.00000    0   18   11.33798    0.00000   100%     -    2s
         0     0    0.00000    0   24   11.33798    0.00000   100%     -    2s
         0     0    0.00000    0   24   11.33798    0.00000   100%     -    2s
         0     0    0.00000    0   24   11.33798    0.00000   100%     -    2s
         0     0    0.00000    0   22   11.33798    0.00000   100%     -    2s
         0     0    0.00000    0   26   11.33798    0.00000   100%     -    2s
         0     0    0.00000    0   16   11.33798    0.00000   100%     -    2s
         0     0    0.00000    0   24   11.33798    0.00000   100%     -    2s
         0     0    0.00000    0   24   11.33798    0.00000   100%     -    2s
         0     0    0.00000    0   24   11.33798    0.00000   100%     -    2s
         0     0    0.00000    0   24   11.33798    0.00000   100%     -    2s
         0     0    0.00000    0   26   11.33798    0.00000   100%     -    2s
         0     0    0.00000    0   20   11.33798    0.00000   100%     -    2s
         0     0    0.00000    0   25   11.33798    0.00000   100%     -    2s
         0     0    0.00000    0   15   11.33798    0.00000   100%     -    2s
         0     2    0.00000    0   21   11.33798    0.00000   100%     -    2s
    H   79    77                      11.2739385    0.00000   100%  75.5    2s
    H  139   125                      11.2739384    0.00000   100%  66.5    3s
    H  194   176                      10.4588180    0.00000   100%  85.1    3s
    H  204   178                      10.4588158    0.00000   100%  82.9    3s
    H  214   171                      10.1090162    0.00000   100%  87.2    3s
    H  221   176                      10.0553075    0.00000   100%  87.7    3s
    H  233   188                      10.0553066    0.00000   100%  86.0    3s
    H  245   196                       9.6010708    0.00000   100%  82.9    3s
    H  262   211                       9.3851064    0.00000   100%  79.5    3s
       300   235    0.46143    7   38    9.38511    0.00000   100%  75.6    5s
    H  319   234                       9.3851039    0.00000   100%   141    6s
    H  329   228                       9.3851036    0.00000   100%   146    6s
    H  354   234                       9.3851032    0.00000   100%   148    7s
    H  356   224                       9.2315257    0.00000   100%   148    7s
    H  358   214                       9.2315256    0.00000   100%   147    7s
    H  361   206                       9.2315255    0.00000   100%   147    7s
    H  361   197                       9.1894458    0.00000   100%   147    7s
    H  369   193                       9.1894457    0.00000   100%   145    7s
    H  370   183                       9.1894456    0.00000   100%   145    7s
    H  373   173                       9.1894455    0.00000   100%   144    7s
    H  430   181                       8.7578533    0.00000   100%   148    8s
    H  431   174                       8.7578531    0.00000   100%   149    8s
    H  447   178                       8.6990420    0.00000   100%   158    8s
    H  448   172                       8.6990419    0.00000   100%   158    8s
    H  448   166                       8.6956547    0.00000   100%   158    8s
    H  449   161                       8.6956547    0.00000   100%   157    8s
    H  450   156                       8.6956546    0.00000   100%   158    8s
    H  451   151                       8.6956546    0.00000   100%   158    8s
    H  453   147                       8.6820424    0.00000   100%   157    8s
    H  454   143                       8.6820418    0.00000   100%   157    8s
    H  456   139                       8.6752552    0.00000   100%   157    8s
    H  457   135                       8.6752552    0.00000   100%   157    8s
    H  457   130                       8.6684937    0.00000   100%   157    8s
    H  458   128                       8.6684934    0.00000   100%   157    8s
    H  459   125                       8.6684934    0.00000   100%   157    8s
    H  460   121                       8.6684934    0.00000   100%   157    8s
    H  476   124                       8.2717439    0.00000   100%   154    8s
    H  491   123                       8.2717404    0.00000   100%   150    8s
    H  506   138                       8.2717402    0.00000   100%   157    9s
    H  597   209                       8.2717402    0.00000   100%   156    9s
    H  685   270                       8.1544407    0.00000   100%   154    9s
    H  687   270                       8.1544400    0.00000   100%   155    9s
    H  690   273                       8.1544399    0.00000   100%   156   10s
    H  696   279                       8.1544399    0.00000   100%   159   10s
    H  759   320                       8.1544395    0.00000   100%   166   10s
    H  796   355                       8.1544394    0.00000   100%   168   10s
    H  847   389                       8.1544394    0.00000   100%   168   11s
    H  899   433                       8.1544394    0.00000   100%   171   11s
    H  940   451                       7.8868841    0.00000   100%   169   11s
    H  940   451                       7.8868838    0.00000   100%   169   11s
    H  940   451                       7.8868835    0.00000   100%   169   11s
    H  948   391                       7.2320301    0.00000   100%   168   11s
    H  954   389                       7.2320287    0.00000   100%   168   11s
    H  982   415                       7.2320276    0.00000   100%   172   11s
    H 1051   463                       7.1083191    0.00000   100%   169   12s
    H 1061   467                       7.1083185    0.00000   100%   171   12s
    H 1077   483                       7.1083182    0.00000   100%   174   12s
    H 1110   473                       6.8806359    0.01076   100%   174   12s
    H 1118   468                       6.8316822    0.01076   100%   175   12s
    H 1131   479                       6.8316819    0.01076   100%   175   12s
    H 1144   482                       6.8316818    0.02750   100%   174   12s
    H 1159   497                       6.8316818    0.02750   100%   175   12s
    H 1199   516                       6.7363526    0.04037  99.4%   174   13s
    H 1256   561                       6.7363521    0.04607  99.3%   173   13s
    H 1256   560                       6.7136773    0.04607  99.3%   173   13s
    H 1275   575                       6.7136768    0.04607  99.3%   174   13s
      1623   742    6.50101   25   28    6.71368    0.37336  94.4%   181   15s
      3047  1408    6.44684   29   27    6.71368    1.01356  84.9%   173   20s
      4688  2153    3.32982   21   42    6.71368    1.48423  77.9%   162   25s
    H 5902  2681                       6.7136768    1.68302  74.9%   160   28s
    H 6008  2726                       6.7136768    1.73160  74.2%   161   29s
    H 6112  2759                       6.7136768    1.73926  74.1%   161   29s
      6219  2798    2.22874   21   43    6.71368    1.74884  74.0%   160   30s
    H 7007  3117                       6.7132646    1.87540  72.1%   159   32s
    H 7059  3149                       6.7132645    1.87738  72.0%   159   32s
    H 7111  3175                       6.7132644    1.87893  72.0%   159   33s
    H 7319  3259                       6.7132644    1.91415  71.5%   158   33s
      7722  3419    6.39246   27   22    6.71326    1.98722  70.4%   157   35s
    H 9058  3910                       6.6567429    2.14181  67.8%   152   38s
    H 9111  3927                       6.6567429    2.14260  67.8%   152   39s
    H 9215  3956                       6.6567429    2.15759  67.6%   152   39s
    H 9267  3964                       6.6567428    2.16701  67.4%   152   39s
    H 9321  3973                       6.6567417    2.16721  67.4%   152   39s
      9358  3989    5.84848   21   31    6.65674    2.19701  67.0%   152   40s
     11041  4591    6.22481   28   25    6.65674    2.33363  64.9%   148   45s
    H11049  4589                       6.6567417    2.33363  64.9%   148   45s
    H11676  4783                       6.6567417    2.41161  63.8%   147   46s
    H11826  4831                       6.6214998    2.42412  63.4%   147   47s
    H11826  4827                       6.6140558    2.42412  63.3%   147   47s
    H12365  5014                       6.6140555    2.46246  62.8%   146   48s
    H12365  5014                       6.6140555    2.46246  62.8%   146   48s
     12699  5122     cutoff   27         6.61406    2.47660  62.6%   146   50s
    H13736  5463                       6.6140555    2.55560  61.4%   145   53s
     14356  5617    5.39446   25   32    6.61406    2.61328  60.5%   144   55s
     15969  6067    4.14785   26   34    6.61406    2.72021  58.9%   143   60s
    H17022  6373                       6.6140555    2.77060  58.1%   142   63s
     17649  6540    4.86624   28   29    6.61406    2.81927  57.4%   142   65s
    H18377  6696                       6.6140555    2.86778  56.6%   140   66s
     19448  6985    3.23840   23   40    6.61406    2.93402  55.6%   139   70s
    H19656  6929                       6.5081505    2.94942  54.7%   140   71s
    H19656  6846                       6.4434326    2.94942  54.2%   140   71s
    H19681  6851                       6.4434324    2.95149  54.2%   140   72s
    H19837  6890                       6.4434321    2.96690  54.0%   140   73s
     20421  7014    4.89054   24   29    6.44343    3.00315  53.4%   139   75s
     22240  7463    6.42443   26   24    6.44343    3.09849  51.9%   137   80s
     24107  7894    5.19709   28   33    6.44343    3.22069  50.0%   135   85s
     25974  8283    6.08689   25   32    6.44343    3.30827  48.7%   134   90s
     27816  8607    4.97594   26   31    6.44343    3.38897  47.4%   132   95s
     29533  8943    6.16058   27   31    6.44343    3.45552  46.4%   132  100s
     31304  9173    5.28235   26   27    6.44343    3.53588  45.1%   131  105s
     32789  9442    5.96517   30   19    6.44343    3.58698  44.3%   131  110s
     34401  9634    5.10040   24   35    6.44343    3.65057  43.3%   131  115s
     35980  9811    4.43205   23   36    6.44343    3.71853  42.3%   130  120s
     37791 10045    4.77252   28   29    6.44343    3.78270  41.3%   129  125s
     39743 10280    5.65067   29   30    6.44343    3.84143  40.4%   128  130s
     41728 10486    5.00740   24   31    6.44343    3.89651  39.5%   127  135s
     43539 10654    5.43751   28   32    6.44343    3.94857  38.7%   127  140s
     45462 10808    5.45598   23   28    6.44343    4.00441  37.9%   126  145s
     47358 10921    5.75165   24   32    6.44343    4.06045  37.0%   125  150s
     49337 11081    5.17427   26   27    6.44343    4.10662  36.3%   124  155s
     51146 11176    5.63797   23   31    6.44343    4.14626  35.7%   124  160s
     53068 11283    4.58716   25   35    6.44343    4.19264  34.9%   123  165s
     54966 11384     cutoff   29         6.44343    4.24080  34.2%   123  170s
     56880 11484    4.29850   22   39    6.44343    4.28287  33.5%   123  175s
     58725 11611    5.34177   23   26    6.44343    4.32799  32.8%   122  180s
     60648 11656    5.80412   32   30    6.44343    4.38637  31.9%   122  185s
     62660 11687    5.70764   22   31    6.44343    4.43759  31.1%   121  190s
     64621 11667    5.41421   26   28    6.44343    4.48812  30.3%   120  195s
     66680 11698    5.23856   30   31    6.44343    4.53593  29.6%   120  200s
    H68127 11630                       6.4292762    4.57594  28.8%   119  203s
    H68129 11628                       6.4292761    4.57610  28.8%   119  204s
    H68184 11628                       6.4292761    4.57651  28.8%   119  204s
    H68446 11635                       6.4292761    4.58017  28.8%   119  205s
    H68710 11617                       6.4292761    4.58669  28.7%   119  205s
     70389 11574     cutoff   25         6.42928    4.62356  28.1%   119  210s
     72444 11441     cutoff   33         6.42928    4.66957  27.4%   118  215s
    H73527 11372                       6.4292759    4.69497  27.0%   118  217s
     74460 11348     cutoff   28         6.42928    4.71956  26.6%   118  220s
     76432 11224    5.49820   23   26    6.42928    4.76839  25.8%   117  225s
     78271 11091    6.19762   34   21    6.42928    4.81441  25.1%   117  230s
     80294 10889    5.22757   31   27    6.42928    4.86624  24.3%   116  235s
     82487 10631    5.82550   23   31    6.42928    4.92302  23.4%   116  240s
     84557 10378    5.24229   28   22    6.42928    4.97696  22.6%   115  245s
     86626 10089     cutoff   26         6.42928    5.03141  21.7%   115  250s
     88554  9796    6.32558   37   17    6.42928    5.08285  20.9%   114  255s
     90760  9420    5.53630   25   33    6.42928    5.13982  20.1%   114  260s
     93022  8987    5.88368   25   31    6.42928    5.20266  19.1%   113  265s
     95328  8439    6.14715   25   32    6.42928    5.27359  18.0%   112  270s
     97637  7846    5.39465   29   30    6.42928    5.34359  16.9%   112  275s
     99967  7094     cutoff   27         6.42928    5.42517  15.6%   111  280s
     102359  6356     cutoff   29         6.42928    5.50607  14.4%   110  285s
     104828  5430     cutoff   39         6.42928    5.60505  12.8%   110  290s
     107316  4381    6.09354   26   21    6.42928    5.71397  11.1%   109  295s
    
    Cutting planes:
      MIR: 1
      Flow cover: 9
    
    Explored 109956 nodes (11925766 simplex iterations) in 300.00 seconds (316.58 work units)
    Thread count was 1 (of 96 available processors)
    
    Solution count 10: 6.42928 6.44343 6.50815 ... 8.27174
    
    Time limit reached
    Best objective 6.429275875515e+00, best bound 5.871673269062e+00, gap 8.6729%
    
    User-callback calls 110154, time in user-callback 0.00 sec

--- Reading solution for model GAMS_MODEL
***
*** Solver did not provide marginals for model GAMS_MODEL
***
--- Executing after solve: elapsed 0:05:00.061
--- model.gms(3931) 4 Mb
--- model.gms(5749) 6 Mb
--- Putfile results /local/scratch/a/sgusev/repos/k_means/data/gams_gurobi_gdp.hull_exact/no_mode/2026-02-15_02-56-30/original/results.dat
--- Putfile statresults /local/scratch/a/sgusev/repos/k_means/data/gams_gurobi_gdp.hull_exact/no_mode/2026-02-15_02-56-30/original/resultsstat.dat
*** Status: Normal completion
--- Job model.gms Stop 02/15/26 03:01:31 elapsed 0:05:00.064
Original problem solved. Time taken: 300.6847734451294 seconds
Original objective value: 6.429275875514788
